CMD:
./solvers/bin/cadical --plain --no-reduce -t 1600 ./data/cnfs//cal41/cal41.65.cnf

c --- [ banner ] -------------------------------------------------------------
c 
c CaDiCaL SAT Solver
c Copyright (c) 2016-2024
c A. Biere, M. Fleury, N. Froleyks, K. Fazekas, F. Pollitt, T. Faller
c JKU Linz, University of Freiburg, TU Wien
c 
c Version 2.1.3 5296d3d2a9bf48c154ab2acb5e44625776d821bf
c g++ (Gentoo 12.3.1_p20230526 p2) 12.3.1 20230526 -Wall -Wextra -O3 -DNDEBUG
c Sat Aug 9 07:26:21 PDT 2025 Linux cedar2.int.cedar.computecanada.ca 5.14.0-362.24.2.el9_3.x86_64 x86_64
c 
c --- [ limit ] --------------------------------------------------------------
c 
c setting time limit to 1600 seconds real time (due to '-t 1600')
c 
c --- [ parsing input ] ------------------------------------------------------
c 
c reading DIMACS file from './data/cnfs//cal41/cal41.65.cnf'
c opening file to read './data/cnfs//cal41/cal41.65.cnf'
c found 'p cnf 146600 403999' header
c parsed 403999 clauses in 0.06 seconds process time
c 
c --- [ options ] ------------------------------------------------------------
c 
c   --compact=false                (different from default 'true')
c   --decompose=false              (different from default 'true')
c   --deduplicate=false            (different from default 'true')
c   --elim=false                   (different from default 'true')
c   --probe=false                  (different from default 'true')
c   --reduce=false                 (different from default 'true')
c   --subsume=false                (different from default 'true')
c   --ternary=false                (different from default 'true')
c   --transred=false               (different from default 'true')
c   --vivify=false                 (different from default 'true')
c 
c --- [ solving ] ------------------------------------------------------------
c 
c time measured in process time since initialization
c 
c  seconds  reductions  redundant  irredundant
c         MB    restarts       trail       variables
c          level   conflicts       glue          remaining
c 
c *  0.06 66  0 0   0    0    0  0% 0 365121 137609 94%
c {  0.06 66  0 0   0    0    0  0% 0 365121 137609 94%
c i  0.06 66 14 0   0  103   85  7% 3 365121 137607 94%
c }  0.27 69 2609 0 127 1003  935 32% 2 365121 137607 94%
c [  0.27 69  0 0 127 1003  935  0% 0 365121 137607 94%
c O  0.27 69 182 0 127 1004  936  8% 1 365121 137607 94%
c i  0.31 69 5533 0 127 1131 1062 54% 2 365121 137606 94%
c i  0.31 69 6362 0 127 1157 1083 61% 2 365121 137589 94%
c i  0.31 69 7796 0 127 1234 1147 74% 4 365121 137586 94%
c i  0.34 69 8261 0 128 2278 2015 78% 8 365121 137575 94%
c ]  0.45 69 6869 0 128 3003 2696 73% 8 365121 137575 94%
c {  0.45 69 2609 0 128 3003 2696 32% 2 365121 137575 94%
c F  0.45 69 2604 0 129 3005 2698 32% 2 365121 137575 94%
c i  0.53 69 1772 0 213 3586 3199 26% 3 365121 137565 94%
c i  0.54 69 1665 0 237 3689 3291 25% 3 365121 137551 94%
c i  0.54 69 1648 0 241 3706 3307 25% 3 365121 137543 94%
c i  0.54 69 1647 0 241 3707 3307 25% 3 365121 137523 94%
c #  0.75 70 748 0 629 6009 5330 18% 5 365121 137523 94%
c }  0.84 70 631 0 720 7009 6192 18% 5 365121 137523 94%
c [  0.84 70 6869 0 720 7009 6192 73% 8 365121 137523 94%
c 
c  seconds    reductions   redundant  irredundant
c         MB      restarts        trail       variables
c           level     conflicts       glue          remaining
c 
c I  0.99 71 2929 0 722 10010 8799 49% 8 365121 137523 94%
c ]  1.26 71 1574 0 725 15010 12593 35% 9 365121 137523 94%
c {  1.26 71 631 0 725 15010 12593 18% 5 365121 137523 94%
c B  1.27 71 631 0 725 15011 12594 18% 5 365121 137523 94%
c i  1.53 72 476 0 908 17578 14862 18% 5 365121 137522 94%
c W  1.90 72 373 0 1136 21013 17640 18% 5 355562 137522 94%
c F  2.58 72 321 0 1682 28017 23805 20% 5 355562 137522 94%
c }  2.90 72 306 0 1797 31011 26422 21% 5 355562 137522 94%
c [  2.90 72 1574 0 1797 31011 26422 35% 9 355562 137522 94%
c B  3.28 73 1116 0 1800 36019 30914 31% 8 355562 137522 94%
c W  3.92 75 747 0 1804 45022 38514 26% 10 355562 137522 94%
c O  4.68 77 644 0 1806 55024 47134 28% 13 355562 137522 94%
c ]  5.55 79 548 0 1811 63013 53991 28% 14 355562 137522 94%
c {  5.55 79 306 0 1811 63013 53991 21% 5 355562 137522 94%
c B  6.00 80 286 0 2157 66025 56618 20% 5 355562 137522 94%
c i  6.73 82 255 0 2581 73815 63091 20% 5 355562 137502 94%
c i  6.74 82 254 0 2581 73965 63139 20% 5 355562 137489 94%
c W  7.57 101 237 0 3112 78028 65119 20% 6 355455 137489 94%
c i  7.75 101 234 0 3213 79828 66692 20% 6 355455 137459 94%
c #  9.04 101 206 0 4039 91029 76324 20% 6 355455 137459 94%
c 
c  seconds    reductions      redundant  irredundant
c          MB     restarts           trail       variables
c            level     conflicts         glue          remaining
c 
c B 10.91 101 184 0 5551 105030 88499 19% 6 355455 137459 94%
c W 13.40 103 172 0 6931 120031 101116 19% 6 355343 137459 94%
c } 14.43 103 167 0 7401 127016 107299 19% 6 355343 137459 94%
c [ 14.43 103 548 0 7401 127016 107299 28% 14 355343 137459 94%
c B 15.26 105 484 0 7406 136033 115222 28% 14 355343 137459 94%
c W 16.76 105 398 0 7411 153034 130345 26% 13 355343 137459 94%
c I 18.30 105 327 0 7413 171036 144796 24% 14 355343 137459 94%
c B 21.42 105 267 0 7424 190038 159047 22% 16 355343 137459 94%
c i 24.47 105 242 0 7426 197210 162827 21% 15 355343 137231 94%
c i 24.58 105 241 0 7426 197540 162923 21% 15 355343 137108 94%
c i 24.82 105 239 0 7426 198255 163153 21% 15 355343 137030 93%
c i 24.91 105 238 0 7426 198564 163230 21% 15 355343 136880 93%
c i 24.92 105 238 0 7426 198585 163242 21% 15 355343 136802 93%
c i 24.95 105 237 0 7426 198663 163243 21% 15 355343 136655 93%
c i 24.99 105 237 0 7426 198745 163261 21% 15 355343 136421 93%
c i 24.99 105 237 0 7426 198765 163268 21% 15 355343 136242 93%
c ] 24.99 105 237 0 7426 198776 163272 21% 15 355343 136126 93%
c 0 24.99 105 237 0 7426 198776 163272 21% 15 355343 136126 93%
c 
c --- [ result ] -------------------------------------------------------------
c 
s UNSATISFIABLE
c 
c --- [ run-time profiling ] -------------------------------------------------
c 
c process time taken by individual solving procedures
c (percentage relative to process time for solving)
c 
c        24.93  100.00% search
c        13.73   55.07% stable
c        10.71   42.97% unstable
c         0.49    1.96% walk
c         0.06    0.24% parse
c         0.00    0.00% lucky
c         0.00    0.00% simplify
c   =================================
c        24.93   99.76% solve
c 
c last line shows process time for solving
c (percentage relative to total process time)
c 
c --- [ statistics ] ---------------------------------------------------------
c 
c chronological:             80225        40.36 %  of conflicts
c conflicts:                198776      7973.67    per second
c decisions:               1103126     44250.64    per second
c fixed:                     10473         7.14 %  of all variables
c learned:                  190182        95.68 %  per conflict
c learned_lits:            6633421       100.00 %  learned literals
c minimized:                     0         0.00 %  learned literals
c shrunken:                2021572        30.48 %  learned literals
c minishrunken:            1048873        15.81 %  learned literals
c otfs:                       1646         0.83 %  of conflict
c propagations:          267746101        10.74 M  per second
c rephased:                     19     10461.89    interval
c restarts:                   7426        26.77    interval
c stabilizing:                   4        57.15 %  of conflicts
c subsumed:                  25128         4.53 %  of all clauses
c strengthened:               1465         0.26 %  of all clauses
c walked:                        5     39755.20    interval
c 
c seconds are measured in process time for solving
c 
c --- [ resources ] ----------------------------------------------------------
c 
c total process time since initialization:        24.99    seconds
c total real time since initialization:           25.09    seconds
c maximum resident set size of process:          119.17    MB
c 
c --- [ shutting down ] ------------------------------------------------------
c 
c exit 20
